Version identifier: 22.1.1.0 | 2022-11-28 | 9160aff4d
CPXPARAM_Threads                                 1
CPXPARAM_MIP_Strategy_VariableSelect             3
CPXPARAM_TimeLimit                               599.99999362599999
1 of 1 MIP starts provided solutions.
MIP start 'm1' defined initial solution with objective 131.0000.
Tried aggregator 1 time.
MIP Presolve eliminated 16 rows and 382 columns.
MIP Presolve modified 1 coefficients.
Reduced MIP has 2669 rows, 4202 columns, and 45196 nonzeros.
Reduced MIP has 4202 binaries, 0 generals, 0 SOSs, and 0 indicators.
Presolve time = 0.02 sec. (22.30 ticks)
Probing time = 0.00 sec. (3.21 ticks)
Tried aggregator 1 time.
Detecting symmetries...
Reduced MIP has 2669 rows, 4202 columns, and 45196 nonzeros.
Reduced MIP has 4202 binaries, 0 generals, 0 SOSs, and 0 indicators.
Presolve time = 0.02 sec. (25.42 ticks)
Probing time = 0.00 sec. (3.21 ticks)
Clique table members: 1518.
MIP emphasis: balance optimality and feasibility.
MIP search method: dynamic search.
Parallel mode: none, using 1 thread.
Root relaxation solution time = 0.03 sec. (42.38 ticks)

        Nodes                                         Cuts/
   Node  Left     Objective  IInf  Best Integer    Best Bound    ItCnt     Gap

*     0+    0                          131.0000     4202.0000              --- 
      0     0      382.0000    89      131.0000      382.0000      988  191.60%
*     0+    0                          382.0000      382.0000             0.00%
      0     0        cutoff            382.0000      382.0000      988    0.00%
Elapsed time = 0.16 sec. (219.60 ticks, tree = 0.01 MB, solutions = 2)

Root node processing (before b&c):
  Real time             =    0.16 sec. (219.79 ticks)
Sequential b&c:
  Real time             =    0.00 sec. (0.00 ticks)
                          ------------
Total (root+branch&cut) =    0.16 sec. (219.79 ticks)
Primal:	382
Dual:	382
Status:	Optimal
Time:	0.17
Sequence:
	1
	10
	9
	6
	9
	0
	1
	4
	4
	9
	6
	9
	3
	4
	6
	1
	5
	9
	6
	4
	9
	9
	6
	0
	9
	9
	9
	9
	9
	9
	9
	6
	9
	9
	9
	9
	9
	9
	9
	9
	5
	9
	5
	5
	9
	9
	9
	9
	9
	4
	9
	4
	1
	6
	9
	4
	9
	7
	9
	4
	4
	1
	9
	0
	4
	9
	9
	9
	9
	9
	9
	9
	9
	9
	9
	9
	7
	5
	9
	1
	5
	9
	9
	9
	4
	9
	6
	1
	9
	4
	6
	3
	9
	5
	9
	5
	1
	1
	4
	9
	1
	1
	6
	4
	0
	9
	4
	1
	4
	1
	1
	4
	1
	4
	1
	1
	1
	9
	1
	1
	4
	6
	1
	4
	1
	7
	9
	1
	4
	6
	1
	9
	1
	4
	1
	9
	4
	4
	1
	4
	6
	0
	4
	9
	4
	4
	9
	11
	4
	9
	9
	4
	9
	4
	9
	9
	9
	9
	9
	9
	9
	9
	9
	9
	9
	9
	9
	9
	9
	1
	9
	4
	9
	9
	4
	1
	1
	9
	4
	9
	9
	9
	9
	9
	9
	9
	9
	4
	4
	9
	9
	4
	1
	4
	11
	4
	0
	6
	1
	4
	0
	5
	4
	9
	8
	4
	1
	4
	1
	6
	9
	9
	7
	6
	9
	9
	4
	9
	7
	9
	4
	0
	4
	5
	9
	1
	7
	4
	1
	4
	9
	6
	7
	9
	5
	4
	9
	0
	7
	1
	9
	6
	4
	0
	4
	6
	0
	7
	9
	5
	0
	5
	9
	0
	5
	1
	4
	6
	3
	4
	5
	0
	4
	1
	4
	4
	0
	4
	4
	1
	4
	0
	6
	4
	0
	1
	4
	4
	9
	7
	6
	9
	0
	4
	4
	0
	4
	4
	0
	4
	1
	4
	4
	9
	9
	9
	9
	9
	6
	7
	9
	9
	4
	4
	9
	7
	9
	5
	5
	9
	5
	5
	9
	5
	6
	9
	7
	4
	1
	5
	0
	4
	7
	9
	5
	5
	9
	8
	9
	5
	9
	6
	1
	9
	9
	0
	6
	9
	7
	4
	9
	5
	4
	0
	10
	7
	9
	0
	6
	4
	1
	4
	6
	9
	4
	9
	4
	4
	1
	4
	1
	4
	4
	1
	1
	4
	4
	1
	4
	4
	1
	4
	4
	1
	1
	1
	4
	4
	1
	0
	4
	4
